200
1000
240
240
240
239
238
238
238
238
237
237
236
236
236
235
235
234
233
232
232
231
230
230
230
230
229
229
228
228
228
227
226
226
225
225
224
224
224
224
224
223
223
223
222
222
221
221
221
221
220
220
219
219
217
217
216
216
216
215
215
215
214
214
214
213
213
213
212
211
211
210
209
209
209
209
208
208
208
208
207
207
207
206
206
205
205
205
205
204
204
204
203
203
203
203
203
203
203
202
202
202
202
201
201
201
200
200
199
199
198
197
197
196
196
195
195
194
194
194
194
194
193
193
193
193
193
192
191
191
191
189
189
188
188
188
188
187
187
187
187
186
186
186
186
185
184
183
183
183
183
183
182
182
182
181
181
181
180
178
178
177
177
177
176
176
175
175
175
175
173
173
172
172
172
172
172
172
171
170
169
169
169
169
169
168
167
167
167
165
165
165
165
165
165
165
164
163
163
163
162
162
